
n_res = 6;
rcap = [103, 104, 90, 118, 1412, 1332];
rtype = [1, 1, 1, 1, 2, 2];
n_tasks = 100;
modes =  [{1, 2, 3}, {4, 5, 6}, {7, 8, 9}, {10, 11, 12}, {13, 14, 15}, {16, 17, 18}, {19, 20, 21}, {22, 23, 24}, {25, 26, 27}, {28, 29, 30}, {31, 32, 33}, {34, 35, 36}, {37, 38, 39}, {40, 41, 42}, {43, 44, 45}, {46, 47, 48}, {49, 50, 51}, {52, 53, 54}, {55, 56, 57}, {58, 59, 60}, {61, 62, 63}, {64, 65, 66}, {67, 68, 69}, {70, 71, 72}, {73, 74, 75}, {76, 77, 78}, {79, 80, 81}, {82, 83, 84}, {85, 86, 87}, {88, 89, 90}, {91, 92, 93}, {94, 95, 96}, {97, 98, 99}, {100, 101, 102}, {103, 104, 105}, {106, 107, 108}, {109, 110, 111}, {112, 113, 114}, {115, 116, 117}, {118, 119, 120}, {121, 122, 123}, {124, 125, 126}, {127, 128, 129}, {130, 131, 132}, {133, 134, 135}, {136, 137, 138}, {139, 140, 141}, {142, 143, 144}, {145, 146, 147}, {148, 149, 150}, {151, 152, 153}, {154, 155, 156}, {157, 158, 159}, {160, 161, 162}, {163, 164, 165}, {166, 167, 168}, {169, 170, 171}, {172, 173, 174}, {175, 176, 177}, {178, 179, 180}, {181, 182, 183}, {184, 185, 186}, {187, 188, 189}, {190, 191, 192}, {193, 194, 195}, {196, 197, 198}, {199, 200, 201}, {202, 203, 204}, {205, 206, 207}, {208, 209, 210}, {211, 212, 213}, {214, 215, 216}, {217, 218, 219}, {220, 221, 222}, {223, 224, 225}, {226, 227, 228}, {229, 230, 231}, {232, 233, 234}, {235, 236, 237}, {238, 239, 240}, {241, 242, 243}, {244, 245, 246}, {247, 248, 249}, {250, 251, 252}, {253, 254, 255}, {256, 257, 258}, {259, 260, 261}, {262, 263, 264}, {265, 266, 267}, {268, 269, 270}, {271, 272, 273}, {274, 275, 276}, {277, 278, 279}, {280, 281, 282}, {283, 284, 285}, {286, 287, 288}, {289, 290, 291}, {292, 293, 294}, {295, 296, 297}, {298, 299, 300}];
succ =  [{49, 46, 45, 43, 33, 32, 31, 28, 26, 25, 22, 13}, {37, 32, 31, 29, 24, 22, 20, 17}, {46, 44, 31, 22, 21, 8}, {56, 54, 49, 46, 44, 43, 42, 36, 34, 33, 31, 30, 29}, {48, 47, 42, 39, 37, 22, 8}, {59, 56, 55, 54, 53, 52, 51, 50, 48, 47, 46, 45, 44, 43, 42, 40, 38, 36}, {61, 59, 55, 54, 51, 50, 49, 47, 46, 44, 43, 41, 40, 38, 36, 34}, {60, 56, 55, 54, 53, 50, 49, 38, 36, 34, 20}, {60, 54, 53, 52, 51, 50, 42, 37, 36, 34, 33, 27}, {69, 59, 58, 56, 55, 54, 52, 46, 45, 44, 34, 31}, {54, 53, 47, 44, 41, 40, 20}, {60, 59, 55, 54, 51, 50, 48, 47, 41, 40, 39, 36, 34}, {54, 51, 48, 41, 27, 24}, {59, 56, 53, 52, 47, 46, 44, 43, 42, 36}, {72, 65, 63, 61, 59, 57, 55, 54, 53, 50, 49, 48, 44, 43}, {59, 58, 56, 53, 51, 50, 49, 47, 42, 40, 36}, {69, 60, 59, 56, 55, 54, 53, 51, 50, 48, 47, 40, 39}, {69, 59, 54, 53, 52, 50, 42, 35, 34}, {70, 61, 60, 59, 58, 52, 51, 50, 45, 40, 36}, {73, 72, 65, 63, 61, 59, 57, 52, 51, 45, 43}, {86, 69, 67, 65, 64, 54, 53, 50, 42, 41}, {69, 59, 58, 55, 54, 51, 50, 34}, {70, 60, 58, 53, 51, 50, 40, 36}, {86, 74, 58, 56, 53, 44, 36}, {84, 72, 69, 67, 65, 60, 59, 54, 53, 50, 41}, {85, 66, 65, 63, 61, 59, 58, 57, 47, 38}, {86, 84, 69, 67, 66, 65, 63, 62, 58, 57, 55, 47}, {76, 72, 69, 61, 60, 59, 58, 56, 54, 51}, {77, 71, 70, 69, 60, 57, 52, 51, 40}, {84, 70, 69, 65, 61, 59, 53, 50, 47}, {86, 84, 70, 68, 65, 63, 61, 57, 53, 50, 48}, {74, 70, 66, 65, 44, 42}, {77, 73, 62, 55, 40}, {77, 74, 72, 71, 70, 68, 67, 66, 65, 64, 62, 57}, {85, 84, 74, 70, 66, 65, 64, 60, 58}, {85, 78, 77, 73, 72, 69, 67, 66, 65, 63, 62, 57}, {76, 74, 73, 72, 70, 67, 66, 64, 62, 58}, {100, 86, 84, 81, 76, 75, 74, 73, 71, 70, 67, 64, 62}, {100, 85, 84, 82, 77, 76, 75, 72, 71, 70, 67, 66, 62}, {96, 85, 83, 74, 72, 68, 66, 65, 64, 63}, {99, 85, 83, 82, 81, 80, 76, 74, 73, 70, 58}, {97, 84, 81, 77, 73, 72, 71, 68, 63, 61}, {99, 86, 81, 80, 76, 74, 70, 69, 67, 58}, {100, 84, 77, 75, 71, 68, 64, 62, 60}, {98, 93, 85, 84, 82, 78, 77, 76, 75, 74, 66, 62}, {100, 98, 95, 82, 81, 78, 76, 75, 73, 62}, {100, 99, 98, 97, 96, 95, 94, 82, 81, 80, 78, 73, 72, 68}, {100, 97, 96, 94, 93, 83, 82, 81, 80, 78, 77, 76, 71}, {100, 98, 96, 93, 91, 80, 78, 76, 74, 66}, {93, 91, 78, 77, 74, 66, 62}, {96, 95, 93, 90, 84, 83, 82, 80, 78, 66}, {98, 96, 92, 83, 82, 78, 76, 74, 66}, {99, 97, 94, 85, 83, 82, 81, 80, 77, 76, 73}, {97, 96, 94, 88, 83, 81, 80, 78, 75, 74, 73}, {100, 97, 93, 91, 85, 71, 70}, {99, 93, 82, 75, 71, 70}, {100, 98, 97, 96, 93, 81, 80, 79, 76, 75}, {100, 97, 96, 93, 88, 79, 77, 75, 71}, {94, 86, 82, 78, 71, 68}, {97, 96, 95, 94, 91, 88, 83, 81, 80, 73}, {93, 91, 78, 62}, {99, 96, 94, 90, 89, 88, 83, 80, 79}, {100, 99, 95, 93, 92, 89, 88, 87, 75}, {98, 97, 94, 93, 92, 89, 82, 78}, {94, 89, 80, 76, 75}, {99, 97, 94, 88, 81, 79}, {96, 91, 90, 89, 88, 87}, {93, 92, 90, 88, 79}, {98, 94, 90, 88, 82}, {94, 90, 88, 78}, {98, 95, 92, 89, 87}, {93, 90, 89, 88, 87}, {93, 89, 79}, {95, 90, 87}, {91, 90}, {88, 87}, {90, 87}, {79}, {87}, {92}, {89}, {91}, {87}, {88}, {89}, {88}, {}, {}, {}, {}, {}, {}, {}, {}, {}, {}, {}, {}, {}, {}];
n_opt = 300;
dur = [17, 26, 27, 13, 15, 23, 19, 24, 28, 2, 7, 26, 3, 13, 27, 2, 22, 25, 5, 8, 9, 3, 15, 16, 2, 8, 24, 22, 26, 28, 13, 24, 28, 15, 22, 29, 5, 27, 28, 15, 18, 28, 7, 10, 14, 9, 14, 28, 1, 10, 15, 9, 11, 14, 5, 22, 24, 9, 10, 21, 2, 4, 18, 19, 20, 28, 2, 17, 26, 1, 2, 16, 16, 17, 21, 9, 19, 30, 8, 15, 26, 5, 22, 28, 6, 8, 18, 13, 14, 15, 11, 17, 18, 5, 12, 16, 10, 18, 24, 4, 21, 26, 5, 21, 30, 4, 25, 30, 14, 17, 18, 2, 23, 24, 5, 20, 28, 20, 22, 24, 18, 19, 22, 1, 21, 22, 20, 23, 29, 2, 11, 15, 3, 10, 17, 1, 12, 22, 8, 24, 29, 2, 7, 29, 6, 23, 30, 7, 28, 29, 4, 14, 25, 8, 15, 20, 8, 10, 13, 17, 18, 19, 1, 3, 21, 5, 7, 24, 8, 12, 24, 13, 22, 28, 1, 2, 30, 10, 21, 26, 15, 17, 22, 18, 26, 27, 16, 23, 26, 10, 27, 28, 3, 7, 16, 4, 8, 9, 9, 18, 21, 1, 9, 25, 1, 3, 13, 17, 19, 22, 10, 11, 24, 6, 12, 14, 3, 8, 28, 12, 13, 22, 17, 26, 28, 5, 18, 27, 4, 25, 26, 12, 14, 27, 2, 3, 12, 21, 24, 25, 4, 26, 30, 1, 2, 23, 9, 29, 30, 4, 15, 23, 3, 6, 23, 2, 4, 25, 11, 14, 27, 12, 16, 17, 20, 21, 22, 18, 22, 25, 16, 22, 29, 7, 10, 11, 12, 25, 27, 3, 5, 14, 17, 20, 21, 14, 17, 18, 7, 8, 22, 1, 9, 26, 1, 16, 17, 9, 27, 29];
rreq = [|9, 5, 2, 28, 27, 25, 30, 29, 29, 4, 4, 2, 13, 10, 5, 15, 14, 3, 26, 25, 24, 24, 19, 14, 8, 7, 3, 28, 25, 23, 20, 15, 15, 19, 17, 16, 9, 6, 3, 17, 11, 1, 12, 10, 7, 27, 26, 26, 10, 8, 7, 28, 27, 27, 18, 12, 6, 27, 25, 23, 12, 11, 8, 27, 22, 19, 22, 22, 20, 25, 24, 24, 27, 19, 11, 20, 15, 12, 15, 14, 12, 26, 17, 11, 17, 15, 13, 19, 17, 12, 23, 20, 15, 27, 25, 24, 14, 13, 8, 12, 8, 8, 28, 18, 17, 13, 13, 13, 18, 15, 14, 29, 16, 14, 27, 21, 16, 23, 19, 18, 25, 9, 2, 4, 3, 2, 16, 12, 10, 8, 6, 6, 19, 15, 9, 10, 8, 5, 22, 19, 17, 24, 18, 18, 6, 5, 5, 20, 18, 17, 24, 24, 19, 24, 14, 5, 20, 19, 16, 22, 18, 17, 27, 26, 25, 5, 5, 5, 18, 18, 14, 15, 10, 6, 23, 21, 17, 18, 17, 14, 14, 11, 7, 26, 15, 7, 20, 19, 16, 22, 20, 12, 21, 19, 18, 9, 8, 6, 6, 6, 6, 13, 12, 12, 22, 19, 18, 24, 19, 15, 27, 26, 26, 25, 23, 23, 17, 16, 14, 16, 10, 8, 23, 17, 14, 29, 19, 17, 14, 10, 7, 14, 12, 7, 30, 26, 25, 11, 9, 6, 18, 12, 5, 19, 18, 17, 17, 16, 15, 27, 21, 14, 10, 9, 9, 22, 15, 12, 25, 20, 18, 24, 23, 20, 20, 12, 11, 20, 20, 17, 25, 21, 16, 24, 19, 11, 17, 16, 12, 6, 6, 6, 22, 18, 15, 17, 14, 12, 27, 19, 19, 29, 19, 15, 23, 14, 9, 20, 10, 7
 |29, 18, 13, 20, 16, 10, 11, 11, 11, 22, 20, 18, 14, 11, 3, 24, 18, 14, 19, 13, 9, 17, 11, 5, 7, 6, 6, 16, 8, 5, 26, 24, 21, 23, 17, 13, 8, 7, 7, 28, 14, 7, 22, 19, 16, 8, 4, 4, 22, 18, 15, 29, 27, 27, 9, 7, 4, 14, 12, 11, 21, 19, 16, 15, 9, 6, 19, 15, 15, 18, 12, 11, 9, 8, 8, 21, 19, 17, 26, 24, 23, 18, 14, 11, 26, 12, 8, 21, 21, 20, 24, 19, 12, 29, 21, 17, 28, 23, 23, 25, 25, 23, 19, 19, 10, 19, 18, 16, 17, 15, 8, 24, 18, 17, 9, 7, 6, 20, 11, 8, 30, 30, 30, 17, 15, 14, 13, 10, 8, 20, 13, 8, 15, 14, 12, 26, 21, 19, 28, 23, 21, 22, 21, 12, 23, 21, 20, 29, 29, 28, 29, 22, 15, 27, 13, 8, 23, 22, 19, 25, 24, 24, 23, 19, 14, 25, 18, 14, 19, 19, 18, 29, 28, 27, 17, 14, 5, 21, 15, 6, 10, 10, 9, 21, 20, 7, 9, 8, 8, 15, 15, 15, 25, 19, 15, 20, 18, 8, 21, 19, 17, 21, 21, 19, 12, 7, 4, 27, 25, 25, 13, 11, 11, 13, 11, 4, 23, 17, 15, 11, 9, 7, 22, 20, 19, 8, 6, 4, 19, 14, 11, 15, 15, 14, 7, 5, 3, 19, 11, 3, 27, 23, 20, 20, 19, 17, 21, 18, 10, 24, 23, 17, 21, 15, 11, 26, 19, 7, 15, 12, 7, 15, 10, 4, 19, 17, 9, 27, 19, 19, 21, 15, 11, 29, 28, 26, 20, 12, 8, 24, 10, 7, 23, 20, 19, 9, 7, 5, 19, 14, 13, 20, 16, 7, 9, 8, 7, 20, 15, 9
 |22, 21, 21, 20, 20, 19, 2, 2, 2, 18, 9, 6, 19, 12, 11, 19, 15, 12, 9, 6, 4, 12, 11, 9, 11, 7, 4, 8, 6, 5, 23, 14, 11, 6, 3, 2, 19, 14, 7, 22, 16, 12, 17, 9, 6, 21, 15, 12, 22, 13, 1, 23, 12, 5, 11, 9, 5, 15, 10, 8, 19, 14, 11, 8, 8, 7, 19, 13, 5, 28, 28, 26, 19, 19, 16, 23, 22, 21, 14, 10, 8, 23, 22, 21, 16, 12, 11, 30, 27, 25, 25, 24, 23, 14, 12, 12, 23, 18, 11, 24, 19, 18, 17, 15, 11, 27, 25, 25, 12, 10, 3, 19, 17, 13, 24, 24, 24, 16, 15, 7, 18, 16, 12, 18, 18, 17, 24, 20, 14, 10, 8, 6, 14, 12, 7, 26, 26, 23, 15, 15, 15, 18, 15, 11, 18, 16, 16, 21, 19, 18, 8, 6, 3, 23, 18, 16, 16, 16, 16, 6, 5, 4, 27, 25, 25, 23, 11, 10, 28, 21, 18, 23, 22, 19, 29, 23, 18, 5, 4, 4, 26, 22, 13, 20, 11, 8, 20, 15, 11, 23, 16, 7, 20, 17, 15, 14, 14, 10, 26, 25, 25, 16, 16, 2, 15, 14, 10, 16, 15, 15, 19, 18, 17, 23, 23, 18, 14, 10, 8, 24, 22, 21, 20, 15, 5, 17, 15, 11, 11, 10, 3, 17, 16, 16, 21, 21, 20, 28, 26, 24, 18, 14, 7, 26, 22, 17, 26, 16, 12, 10, 9, 5, 20, 14, 10, 27, 27, 27, 23, 21, 21, 26, 18, 8, 20, 20, 20, 18, 18, 18, 27, 17, 12, 7, 5, 5, 23, 23, 21, 6, 5, 5, 23, 23, 23, 15, 12, 9, 14, 11, 3, 28, 15, 7, 22, 19, 18, 18, 16, 13
 |15, 12, 9, 29, 27, 27, 29, 24, 21, 26, 22, 16, 21, 17, 6, 22, 17, 15, 17, 9, 3, 25, 20, 11, 26, 23, 17, 29, 26, 23, 27, 26, 25, 26, 15, 10, 15, 13, 11, 25, 19, 15, 19, 11, 3, 21, 19, 14, 23, 12, 5, 10, 9, 7, 29, 29, 29, 26, 11, 5, 24, 24, 23, 30, 18, 9, 14, 13, 12, 23, 16, 11, 18, 13, 10, 20, 20, 14, 21, 19, 18, 19, 13, 3, 23, 18, 12, 12, 10, 8, 4, 4, 3, 6, 4, 4, 14, 10, 9, 3, 3, 1, 20, 14, 9, 27, 19, 15, 23, 19, 13, 20, 19, 18, 8, 8, 7, 19, 17, 13, 24, 21, 21, 25, 25, 20, 10, 9, 9, 27, 27, 27, 25, 12, 10, 15, 11, 5, 26, 24, 19, 24, 16, 10, 7, 7, 6, 29, 17, 14, 18, 17, 7, 30, 26, 23, 24, 14, 11, 26, 24, 23, 23, 20, 15, 14, 11, 7, 17, 9, 4, 14, 11, 11, 23, 22, 20, 24, 19, 11, 12, 11, 11, 12, 11, 9, 21, 15, 15, 18, 11, 3, 28, 27, 25, 17, 10, 6, 21, 20, 19, 18, 18, 16, 23, 20, 15, 17, 14, 5, 23, 19, 18, 25, 19, 9, 25, 23, 19, 18, 10, 7, 26, 14, 12, 24, 16, 15, 17, 15, 14, 19, 17, 14, 15, 14, 10, 12, 10, 9, 24, 20, 9, 18, 15, 10, 18, 17, 16, 15, 12, 9, 25, 24, 17, 29, 29, 29, 15, 12, 10, 19, 13, 6, 25, 25, 24, 13, 9, 4, 14, 12, 7, 13, 6, 2, 28, 27, 27, 19, 17, 17, 20, 12, 5, 16, 11, 11, 6, 3, 2, 25, 20, 18, 15, 14, 8, 28, 27, 26
 |18, 14, 9, 15, 13, 8, 26, 17, 13, 12, 11, 10, 22, 22, 21, 9, 9, 2, 20, 16, 11, 23, 20, 17, 18, 17, 16, 22, 21, 14, 24, 15, 10, 23, 13, 7, 24, 20, 16, 18, 14, 11, 21, 10, 3, 22, 15, 9, 25, 22, 19, 18, 17, 5, 18, 13, 10, 26, 25, 23, 21, 20, 19, 25, 23, 16, 14, 14, 14, 16, 13, 6, 12, 7, 5, 9, 7, 5, 24, 24, 16, 19, 11, 9, 16, 12, 11, 22, 20, 17, 25, 20, 17, 24, 15, 4, 26, 21, 15, 26, 18, 11, 26, 24, 20, 5, 4, 1, 30, 28, 28, 9, 7, 6, 14, 13, 4, 21, 13, 13, 14, 11, 8, 27, 27, 23, 16, 10, 8, 24, 16, 14, 26, 20, 13, 11, 10, 7, 27, 20, 17, 17, 16, 16, 27, 23, 22, 10, 9, 6, 18, 17, 17, 25, 20, 16, 24, 19, 15, 21, 18, 7, 17, 15, 13, 19, 17, 16, 4, 3, 3, 24, 16, 16, 26, 20, 16, 25, 23, 22, 2, 2, 1, 21, 10, 3, 23, 23, 23, 22, 19, 15, 7, 7, 5, 26, 25, 22, 5, 2, 2, 27, 21, 6, 20, 13, 4, 24, 16, 11, 16, 12, 9, 29, 16, 14, 13, 9, 5, 17, 10, 5, 21, 12, 10, 24, 24, 24, 24, 23, 22, 26, 26, 25, 21, 19, 19, 18, 17, 16, 17, 16, 10, 23, 19, 18, 27, 17, 13, 25, 21, 17, 19, 18, 17, 7, 7, 6, 25, 17, 9, 21, 16, 2, 16, 16, 16, 30, 23, 20, 8, 7, 6, 24, 22, 19, 26, 25, 22, 19, 9, 5, 22, 19, 17, 24, 17, 8, 21, 19, 19, 12, 9, 6, 15, 11, 8, 13, 9, 2
 |9, 6, 2, 26, 23, 17, 14, 10, 9, 27, 22, 22, 27, 26, 22, 24, 24, 24, 15, 12, 6, 11, 4, 4, 14, 12, 12, 9, 5, 4, 11, 10, 9, 16, 15, 8, 25, 16, 4, 23, 18, 9, 12, 10, 9, 22, 18, 17, 22, 17, 9, 16, 11, 7, 14, 14, 12, 24, 9, 8, 12, 12, 12, 23, 20, 16, 23, 21, 18, 16, 9, 9, 28, 27, 27, 5, 2, 1, 10, 9, 9, 26, 18, 10, 22, 22, 21, 19, 9, 8, 12, 12, 10, 11, 11, 8, 25, 21, 20, 26, 25, 25, 29, 25, 18, 21, 19, 17, 18, 13, 6, 22, 18, 3, 20, 13, 11, 16, 11, 7, 18, 15, 6, 21, 16, 3, 11, 10, 10, 18, 18, 17, 13, 12, 11, 18, 16, 9, 19, 17, 17, 17, 16, 15, 29, 28, 28, 17, 15, 12, 22, 17, 15, 24, 14, 6, 17, 13, 5, 17, 17, 17, 10, 8, 6, 23, 22, 21, 15, 13, 8, 26, 16, 10, 11, 8, 2, 15, 15, 11, 18, 14, 14, 5, 5, 4, 12, 11, 10, 18, 17, 15, 13, 13, 12, 4, 3, 3, 16, 9, 9, 21, 12, 10, 1, 1, 1, 21, 17, 10, 11, 9, 5, 9, 8, 4, 21, 19, 15, 5, 4, 3, 26, 23, 19, 28, 28, 28, 14, 13, 12, 20, 19, 19, 27, 27, 23, 27, 19, 12, 9, 7, 4, 21, 19, 17, 24, 20, 8, 26, 23, 21, 14, 12, 11, 21, 18, 16, 17, 14, 11, 24, 17, 6, 13, 10, 1, 24, 21, 18, 16, 10, 5, 27, 24, 24, 21, 18, 11, 22, 21, 19, 23, 18, 16, 23, 11, 10, 15, 10, 10, 24, 12, 5, 26, 23, 15, 22, 19, 10|];